%nprocshared=8
%mem=4GB
#p opt=modredundant b3lyp/6-311+g(d,p)

Title Card Required

0 1
 C                  0.00000000    0.00000000    0.00000000
 O                  0.00000000    0.74611250    0.88918226
 O                  0.00000000    0.74611250   -0.88918226

B 1 2 F
B 3 1 F
A 3 1 2 S 79 1.000000

