%nprocshared=8
%mem=4GB
#p opt=modredundant b3lyp/6-311+g(d,p)

Title Card Required

0 1
 C                 -0.65921789    0.93296088    0.00000000
 O                  0.18538211    0.93296088    0.00000000
 O                 -1.50381789    0.93296088    0.00000000

B 3 2 S 750 0.010000

