%nprocshared=8
%mem=4GB
#p opt=tight b3lyp/6-311+g(d,p)

Title Card Required

0 1
 C                  0.34636872    0.34078212    0.00000000
 O                  1.60476872    0.34078212    0.00000000
 O                 -0.91203128    0.34078212    0.00000000

