%nprocshared=8
%mem=4GB
#p b3lyp/6-311+g(d,p) polar

Title Card Required

0 1
 C                  0.00000000    0.00000000    0.00000000
 O                  0.00000000    0.00000000    1.16079200
 O                  0.00000000    0.00000000   -1.16079200

